2
5  7  1  2  6  3  10  8  4  4  2  3  1  8  7  9  5  6  9  8  6  4  5  10  1  2  3  1  5  7  3  2  4  11  6  8  2  3  8  6  9  1  4  7  5  6  4  9  5  7  8  2  3  1  8  9  4  7  3  2  6  1  10  3  1  2  9  10  5  7  4  11  7  6  10  8  1  11  3  9  2  